Traveling Salesman Problem/TSP_generados/Aleatorio1620390993_12.tsp
NAME: Aleatorio1620390993_12.tsp
COMMENT: Randomly generated scenario
TYPE: TSP
DIMENSION: 12
EDGE_WEIGHT_TYPE: ATT
NODE_COORD_SECTION
1 49.03 39.06
2 21.64 10.3
3 5.22 20.14
4 35.86 19.15
5 33.81 19.49
6 12.14 5.43
7 31.01 10.49
8 44.7 43.31
9 37.47 25.27
10 11.94 8.93
11 0.8 3.75
12 9.84 26.0
