Traveling Salesman Problem/TSP_generados/Aleatorio1620390993_12.opt.tour
NAME: Aleatorio1620390993_12.opt.tour
COMMENT: Optimal solution for Aleatorio1620390993_12 (139.38987064097375)
TYPE: TOUR
DIMENSION: 12
TOUR_SECTION
1 9 4 5 7 2 10 6 11 3 12 8
-1
EOF
